2-dimensional/CL_10_24_04.vbp
2
100 100 
24
26 49 30
47 43 72
47 34 4
46 43 88
46 40 54
30 44 64
43 31 90
36 43 26
29 42 94
42 39 28
41 32 72
40 28 49
39 23 54
33 39 19
36 35 28
32 35 61
27 33 84
17 31 23
28 29 67
29 24 53
26 28 54
28 11 16
21 26 9
11 18 54
