datasets/2-dimensional-benchmark/CL_10_24_04.txt
100 100 
0 30 26 49 
1 72 47 43 
2 4 47 34 
3 88 46 43 
4 54 46 40 
5 64 30 44 
6 90 43 31 
7 26 36 43 
8 94 29 42 
9 28 42 39 
10 72 41 32 
11 49 40 28 
12 54 39 23 
13 19 33 39 
14 28 36 35 
15 61 32 35 
16 84 27 33 
17 23 17 31 
18 67 28 29 
19 53 29 24 
20 54 26 28 
21 16 28 11 
22 9 21 26 
23 54 11 18 
